
Gurobi 11.0.3 (linux64) logging started Thu Nov 21 23:07:13 2024

Set parameter LogFile to value "/home/yihong/Coding/OR_SUC/SUC_results_bigM100000_thread4/case24_ieee_rts_theta0.5_epsilon0.05_gurobi_seed470000_num_gen100_N_WDR100_load_scaling_factor1_proposed_T12quadra_cost.txt"
Set parameter TimeLimit to value 3600
Gurobi Optimizer version 11.0.3 build v11.0.3rc0 (linux64 - "Ubuntu 20.04.6 LTS")

CPU model: AMD EPYC 7532 32-Core Processor, instruction set [SSE2|AVX|AVX2]
Thread count: 64 physical cores, 128 logical processors, using up to 4 threads

Optimize a model with 28530 rows, 14981 columns and 657050 nonzeros
Model fingerprint: 0xcdf9b0f2
Model has 1200 quadratic constraints
Variable types: 13781 continuous, 1200 integer (1200 binary)
Coefficient statistics:
  Matrix range     [3e-04, 2e+03]
  QMatrix range    [2e-03, 8e-03]
  QLMatrix range   [2e-01, 6e+01]
  Objective range  [1e+00, 1e+00]
  Bounds range     [1e+00, 1e+00]
  RHS range        [1e+00, 9e+03]
Presolve removed 23577 rows and 6538 columns
Presolve time: 0.19s
Presolved: 4953 rows, 8443 columns, 27483 nonzeros
Presolved model has 1200 quadratic constraint(s)
Variable types: 7243 continuous, 1200 integer (1200 binary)

Root relaxation: objective 2.329651e+04, 4338 iterations, 0.08 seconds (0.12 work units)

    Nodes    |    Current Node    |     Objective Bounds      |     Work
 Expl Unexpl |  Obj  Depth IntInf | Incumbent    BestBd   Gap | It/Node Time

     0     0 23296.5120    0   12          - 23296.5120      -     -    0s
     0     0 100191.714    0  512          - 100191.714      -     -    0s
     0     0 232426.291    0  398          - 232426.291      -     -    0s
     0     0 232432.803    0  301          - 232432.803      -     -    0s
     0     0 232625.077    0  187          - 232625.077      -     -    0s
     0     0 232625.594    0  185          - 232625.594      -     -    0s
     0     0 232626.253    0  186          - 232626.253      -     -    0s
     0     0 232626.317    0  186          - 232626.317      -     -    0s
     0     2 232626.317    0  186          - 232626.317      -     -    1s
H  305   285                    232794.69614 232628.170  0.07%  29.4    2s
*  305   285             148    232794.69614 232628.170  0.07%  29.4    2s

Cutting planes:
  Gomory: 58
  Implied bound: 325
  MIR: 65
  Flow cover: 256

Explored 331 nodes (21601 simplex iterations) in 2.42 seconds (3.11 work units)
Thread count was 4 (of 128 available processors)

Solution count 2: 232795 232795 

Optimal solution found (tolerance 1.00e-03)
Warning: max constraint violation (3.3365e-07) exceeds tolerance
Best objective 2.327946961435e+05, best bound 2.326281696857e+05, gap 0.0715%
